
Gurobi 12.0.3 (linux64) logging started Fri Jan  2 04:39:17 2026

Set parameter LogFile to value "/home/bazzo/Scrivania/fjsp_rescheduling/simulations/logs/EX26/gurobi_exp26.log"
Set parameter OutputFlag to value 1
Set parameter TimeLimit to value 2160
Set parameter Presolve to value 2
Set parameter MIPFocus to value 3
Set parameter Heuristics to value 0.1
Set parameter ImproveStartGap to value 0.5
Set parameter Presolve to value 2
Gurobi Optimizer version 12.0.3 build v12.0.3rc0 (linux64 - "Ubuntu 22.04.5 LTS")

CPU model: Intel(R) Xeon(R) W-2145 CPU @ 3.70GHz, instruction set [SSE2|AVX|AVX2|AVX512]
Thread count: 8 physical cores, 16 logical processors, using up to 16 threads

Non-default parameters:
TimeLimit  2160
Heuristics  0.1
MIPFocus  3
Presolve  2
ImproveStartGap  0.5

Optimize a model with 355328 rows, 90861 columns and 1754345 nonzeros
Model fingerprint: 0xaf2820a0
Model has 15 quadratic constraints
Variable types: 15 continuous, 90846 integer (90244 binary)
Coefficient statistics:
  Matrix range     [1e+00, 2e+04]
  QMatrix range    [1e+00, 1e+00]
  QLMatrix range   [1e+00, 1e+00]
  Objective range  [1e+00, 1e+00]
  Bounds range     [1e+00, 1e+00]
  RHS range        [1e+00, 5e+04]
Presolve removed 157111 rows and 41010 columns (presolve time = 5s)...
Presolve removed 159961 rows and 41014 columns (presolve time = 10s)...
Presolve removed 159985 rows and 41014 columns (presolve time = 15s)...
Presolve removed 160001 rows and 41028 columns
Presolve time: 18.17s
Presolved: 195327 rows, 49833 columns, 1357748 nonzeros
Presolved model has 15 quadratic constraint(s)
Variable types: 15 continuous, 49818 integer (49569 binary)

Deterministic concurrent LP optimizer: primal simplex, dual simplex, and barrier
Showing barrier log only...

Root relaxation presolve removed 4811 rows and 2209 columns
Root relaxation presolved: 190516 rows, 47624 columns, 1334972 nonzeros

Root barrier log...


Barrier performed 0 iterations in 21.27 seconds (49.54 work units)
Barrier solve interrupted - model solved by another algorithm

Concurrent spin time: 0.01s

Solved with dual simplex

Root relaxation: objective 2.500000e+01, 4683 iterations, 2.71 seconds (2.36 work units)
Total elapsed time = 30.88s (DegenMoves)
Total elapsed time = 35.29s (DegenMoves)
Total elapsed time = 44.46s (DegenMoves)
Total elapsed time = 45.46s (DegenMoves)

    Nodes    |    Current Node    |     Objective Bounds      |     Work
 Expl Unexpl |  Obj  Depth IntInf | Incumbent    BestBd   Gap | It/Node Time

     0     0   25.00000    0   41          -   25.00000      -     -   45s
     0     0   25.00000    0  117          -   25.00000      -     -   68s
     0     0   25.00000    0  147          -   25.00000      -     -   69s
     0     0   25.00000    0  116          -   25.00000      -     -   92s
     0     0   25.00000    0  152          -   25.00000      -     -   93s
     0     0   25.00000    0  100          -   25.00000      -     -  118s
     0     0   25.00000    0  170          -   25.00000      -     -  118s
     0     0   25.00000    0  104          -   25.00000      -     -  131s
     0     0   25.00000    0  159          -   25.00000      -     -  131s
     0     0   25.00000    0   94          -   25.00000      -     -  152s
     0     0   25.00000    0  166          -   25.00000      -     -  153s
     0     0 3869.00000    0   95          - 3869.00000      -     -  170s
     0     0 3869.00000    0  143          - 3869.00000      -     -  171s
     0     0 3869.00000    0  101          - 3869.00000      -     -  195s
     0     0 3869.00000    0  184          - 3869.00000      -     -  195s
     0     0 3869.00000    0  130          - 3869.00000      -     -  226s
     0     0 3869.00000    0  174          - 3869.00000      -     -  226s
     0     0 3869.00000    0  137          - 3869.00000      -     -  246s
     0     0 3869.00000    0  186          - 3869.00000      -     -  247s
     0     0 3869.00000    0  115          - 3869.00000      -     -  273s
     0     0 3869.00000    0  120          - 3869.00000      -     -  292s
     0     0 3869.00000    0  113          - 3869.00000      -     -  313s
     0     0 3869.00000    0  116          - 3869.00000      -     -  333s
     0     0 3869.00000    0  112          - 3869.00000      -     -  354s
     0     0 3869.00000    0  117          - 3869.00000      -     -  372s
     0     0 3869.00000    0  109          - 3869.00000      -     -  389s
     0     0 3869.00000    0  102          - 3869.00000      -     -  395s
H    0     0                    4.056896e+09 3869.00000   100%     -  437s
H    0     0                    1.214160e+09 3869.00000   100%     -  448s
     0     2 3869.00000    0   98 1.2142e+09 3869.00000   100%     -  450s
     3     8 3990.70429    2  202 1.2142e+09 3869.00000   100%   378  458s
     7    16 3869.00000    3  255 1.2142e+09 3869.00000   100%   467  460s
    15    24 3869.00000    4  271 1.2142e+09 3869.00000   100%   579  465s
    23    64 3869.00000    5  281 1.2142e+09 3869.00000   100%   474  491s
H   41    64                    1.214133e+09 3869.00000   100%   305  492s
    63    88 3956.33333    6  341 1.2141e+09 3869.00000   100%   239  503s
H   87   161                    1.214105e+09 3869.00000   100%   206  523s
H  107   161                    1.390901e+08 3869.00000   100%   181  523s
   160   267 3869.00000    8  289 1.3909e+08 3869.00000   100%   161  535s
H  275   351                    1.329661e+08 3869.00000   100%   116  538s
H  352   359                    1.329617e+08 3869.00000   100%   101  552s
   399   406 3876.58794    9  298 1.3296e+08 3869.00000   100%   104  567s
H  403   406                    1.290003e+08 3869.00000   100%   112  567s
   407   442 3869.00000   13  238 1.2900e+08 3869.00000   100%   114  572s
H  443   442                    1.289935e+08 3869.00000   100%   121  582s
H  443   442                    1.289877e+08 3869.00000   100%   121  583s
H  443   442                    1.289821e+08 3869.00000   100%   121  584s
H  443   442                    1.269316e+08 3869.00000   100%   121  588s
H  443   442                    1.269253e+08 3869.00000   100%   121  592s
H  443   442                    3219932.0000 3869.00000   100%   121  593s
H  443   442                    3181716.0000 3869.00000   100%   121  595s
H  443   442                    3140871.0000 3869.00000   100%   121  595s
H  443   442                    3069051.0000 3869.00000   100%   121  596s
H  443   442                    3068144.0000 3869.00000   100%   121  597s
H  443   442                    3067463.0000 3869.00000   100%   121  597s
H  443   442                    3066554.0000 3869.00000   100%   121  598s
H  443   442                    3065647.0000 3869.00000   100%   121  599s
H  443   442                    2185251.0000 3869.00000   100%   121  599s
   444   443 13243.1463   17  102 2185251.00 3869.00000   100%   121  657s
   446   444 3888.66526   10  187 2185251.00 3869.00000   100%   120  726s
   447   445 6022.00000   17  146 2185251.00 3869.00000   100%   120  764s
   448   446 3928.00792   11  153 2185251.00 3869.00000   100%   119  768s
   449   446 3870.17826   14  152 2185251.00 3869.00000   100%   119  786s
   450   447 5469.00000   13  186 2185251.00 3869.00000   100%   119  801s
H  450   424                    2184422.0000 3869.88454   100%   119  822s
   451   425 4163.00000    8  126 2184422.00 3869.98220   100%   119  847s
   452   425 3869.98220   16  168 2184422.00 3869.98220   100%   118  862s
H  452   404                    2098805.0000 3869.99996   100%   118  883s
   453   405 3930.00000   22  148 2098805.00 3870.00000   100%   118  903s
H  453   384                    1952336.0000 3870.00000   100%   118  903s
   454   385 3945.00000   12  185 1952336.00 3870.00000   100%   118  921s
   455   385 10973.0000   15  155 1952336.00 3870.00000   100%   118  951s
H  455   366                    1951755.0000 3870.00000   100%   118  951s
H  455   347                    1937251.0000 3870.00000   100%   118  951s
H  455   330                    1936290.0000 3870.00000   100%   118  951s
H  455   313                    1935579.0000 3870.00000   100%   118  951s
H  455   297                    1923268.0000 3870.00000   100%   118  951s
H  455   282                    1922535.0000 3870.00000   100%   118  951s
H  455   268                    1921578.0000 3870.00000   100%   118  951s
H  455   254                    1720829.0000 3870.00000   100%   118  952s
H  455   241                    1715502.0000 3870.00000   100%   118  952s
H  455   229                    1714771.0000 3870.00000   100%   118  952s
H  455   217                    1657754.0000 3870.00000   100%   118  952s
H  455   206                    1652609.0000 3870.00000   100%   118  952s
H  455   196                    1649725.0000 3870.00000   100%   118  952s
H  455   186                    1544320.0000 3870.00000   100%   118  952s
   456   187 3879.00000   15  206 1544320.00 3870.00000   100%   117  956s
   457   188 3870.00000   13  170 1544320.00 3870.00000   100%   117  967s
   458   188 4104.00000   18  239 1544320.00 3870.00000   100%   117  974s
   459   189 3927.00000   15  139 1544320.00 3870.42698   100%   117  992s
   460   190 3892.86463   11  186 1544320.00 3870.42698   100%   116  996s
   461   190 3874.53957   10  183 1544320.00 3871.91808   100%   116 1005s
   462   191 3873.79917    7  237 1544320.00 3871.91808   100%   116 1010s
   463   192 3873.79917    8  179 1544320.00 3871.99670   100%   116 1033s
   464   192 5184.00000   13  225 1544320.00 3872.00789   100%   115 1038s
H  464   182                    1531685.0000 3872.18609   100%   115 1049s
   465   183 10973.0000   17  153 1531685.00 3872.41234   100%   115 1056s
H  465   173                    1513269.0000 3872.41234   100%   115 1056s
   466   174 3872.41234   18  249 1513269.00 3872.41234   100%   115 1061s
H  466   165                    1509057.0000 3872.41234   100%   115 1068s
   467   165 10923.0000   10  166 1509057.00 3872.42754   100%   115 1078s
H  467   156                    1508494.0000 3872.42754   100%   115 1078s
H  467   148                    1501812.0000 3872.42754   100%   115 1078s
H  467   140                    1484750.0000 3872.42754   100%   115 1078s
H  467   133                    1484225.0000 3872.42754   100%   115 1078s
H  467   126                    1473400.0000 3872.42754   100%   115 1078s
H  467   119                    1469662.0000 3872.42754   100%   115 1078s
H  467   113                    1459405.0000 3872.42754   100%   115 1078s
H  467   107                    1438400.0000 3872.42754   100%   115 1078s
H  467   101                    1389075.0000 3872.42754   100%   115 1078s
   468   102 3952.67167   14  231 1389075.00 3872.42754   100%   114 1084s
   469   103 3928.00000   10  171 1389075.00 3872.42754   100%   114 1094s
   470   103 3878.00000   10  241 1389075.00 3872.42754   100%   114 1099s
   471   104 4125.00000   10  170 1389075.00 3872.42754   100%   114 1110s
   472   105 34514.0000   20  205 1389075.00 3872.42754   100%   113 1115s
   473   105 8749.00000   22  151 1389075.00 3872.77813   100%   113 1127s
   474   106 5469.00000   20  196 1389075.00 3872.77813   100%   113 1131s
   475   107 3893.00000   13  153 1389075.00 3872.77813   100%   113 1140s
   477   108 3872.77813    6  161 1389075.00 3872.77813   100%   112 1152s
   478   109 3894.49529   12  230 1389075.00 3872.77813   100%   112 1158s
   479   109 3873.00000   11  152 1389075.00 3872.77813   100%   112 1169s
   480   110 3872.77813   16  164 1389075.00 3872.77813   100%   112 1173s
   481   111 3980.77778   12  136 1389075.00 3872.77813   100%   111 1188s
   482   111 4213.00000   15  186 1389075.00 3872.77813   100%   111 1192s
   483   112 5469.00000   10  137 1389075.00 3872.77813   100%   111 1201s
H  483   106                    1388498.0000 3872.77813   100%   111 1205s
H  483   100                    1387807.0000 3872.77813   100%   111 1205s
H  483    94                    1349224.0000 3872.77813   100%   111 1205s
H  483    89                    1347808.0000 3872.77813   100%   111 1205s
H  483    84                    1323004.0000 3872.77813   100%   111 1205s
   485    85 3888.48237   10  170 1323004.00 3872.77813   100%   110 1213s
   486    86 3878.00000   15  238 1323004.00 3872.77813   100%   110 1217s
   487    87 5469.00000   18  138 1323004.00 3872.77813   100%   110 1226s
   488    87 4125.00000   12  214 1323004.00 3872.77813   100%   110 1230s
   489    88 3908.00000    9  137 1323004.00 3872.77813   100%   109 1238s
   490    89 3877.89421   12  198 1323004.00 3872.77813   100%   109 1244s
   491    89 3872.77813   17  119 1323004.00 3872.77813   100%   109 1252s
   492    90 3930.00000   23  204 1323004.00 3872.77813   100%   109 1257s
   493    91 3872.77813   11  157 1323004.00 3872.77813   100%   109 1262s
   496    94 4125.00000   12  102 1323004.00 3872.77813   100%   267 1306s
H  497    90                    1233127.0000 3872.77813   100%   267 1372s
H  497    85                    1227089.0000 3872.77813   100%   267 1372s
H  497    81                    1222700.0000 3872.77813   100%   267 1372s
   499    82 3874.00000   20  129 1222700.00 3874.00000   100%   266 1421s
   500    83 3980.77778   12  155 1222700.00 3874.00000   100%   265 1434s
H  500    79                    1221855.0000 3874.00000   100%   265 1463s
H  500    75                    1215215.0000 3874.00000   100%   265 1463s
H  500    71                    1214708.0000 3874.00000   100%   265 1463s
H  500    67                    1204320.0000 3874.00000   100%   265 1463s
H  500    64                    923572.00000 3874.00000   100%   265 1463s
H  500    61                    922975.00000 3874.00000   100%   265 1463s
H  500    57                    919758.00000 3874.00000   100%   265 1463s
H  500    55                    911442.00000 3874.00000   100%   265 1463s
H  500    52                    910482.00000 3874.00000   100%   265 1463s
H  500    49                    909358.00000 3874.00000   100%   265 1463s
H  500    47                    907771.00000 3874.00000   100%   265 1463s
H  500    44                    879387.00000 3874.00000   100%   265 1463s
H  500    42                    878628.00000 3874.00000   100%   265 1463s
H  500    40                    875163.00000 3874.00000   100%   265 1463s
H  500    38                    874602.00000 3874.00000   100%   265 1464s
H  500    36                    833067.00000 3874.00000   100%   265 1464s
H  500    34                    830217.00000 3874.00000   100%   265 1464s
   501    34 3874.00000   10  136 830217.000 3874.00000   100%   265 1491s
H  501    32                    829794.00000 3874.00000   100%   265 1491s
H  501    30                    828696.00000 3874.00000   100%   265 1491s
H  501    29                    827419.00000 3874.00000   100%   265 1491s
H  501    27                    822420.00000 3874.00000   100%   265 1491s
H  501    26                    777676.00000 3874.00000   100%   265 1491s
H  501    24                    772176.00000 3874.00000  99.5%   265 1491s
H  501    23                    768536.00000 3874.00000  99.5%   265 1491s
H  501    22                    768115.00000 3874.00000  99.5%   265 1491s
H  501    20                    767580.00000 3874.00000  99.5%   265 1491s
H  501    19                    766594.00000 3874.00000  99.5%   265 1491s
H  501    18                    749462.00000 3874.00000  99.5%   265 1491s
H  501    17                    747318.00000 3874.00000  99.5%   265 1518s
H  502    17                    741697.00000 3874.00000  99.5%   264 1544s
   503    18 4061.00000   19  160 741697.000 3874.00000  99.5%   264 1573s
   504    18 3929.00000   16  195 741697.000 3874.00000  99.5%   263 1599s
   505    19 3874.00000   10  158 741697.000 3874.00000  99.5%   263 1653s
   506    20 3874.00000   11  217 741697.000 3874.00000  99.5%   262 1671s
   507    20 4451.00000   14  145 741697.000 3874.00000  99.5%   262 1690s
   508    21 3908.00000    9  201 741697.000 3874.00000  99.5%   261 1696s
   509    22 3885.00000    9  184 741697.000 3874.00000  99.5%   260 1705s
   510    22 3874.00000   13  334 741697.000 3874.00000  99.5%   260 1711s
   511    23 3874.00000   15  163 741697.000 3874.00000  99.5%   259 1726s
   512    24 8752.79917   16  170 741697.000 3874.00000  99.5%   259 1730s
   513    24 3874.00000    7  169 741697.000 3874.00000  99.5%   258 1746s
   514    25 3874.00000    7  214 741697.000 3874.00000  99.5%   258 1751s
   515    26 3874.00000   15  165 741697.000 3874.00000  99.5%   257 1770s
   517    27 6577.00000   10  158 741697.000 3874.00000  99.5%   256 1787s
   518    28 3928.00792   11  198 741697.000 3874.00000  99.5%   256 1791s
   519    28 3874.00000   14  150 741697.000 3874.00000  99.5%   255 1801s
   520    29 4164.00000   19  183 741697.000 3874.00000  99.5%   255 1805s
   521    30 3928.00000   10  182 741697.000 3874.18743  99.5%   254 1813s
   522    30 3908.00000   10  227 741697.000 3874.18743  99.5%   254 1817s
   523    31 6577.00000   10  166 741697.000 3874.18743  99.5%   254 1833s
   524    32 3874.18743   10  216 741697.000 3874.18743  99.5%   253 1837s
H  524    30                    722725.00000 3874.18743  99.5%   253 1844s
   525    30 3874.18743   22  186 722725.000 3874.18743  99.5%   253 1853s
   528    34 3887.99425   11  102 722725.000 3874.18743  99.5%   356 1894s
   530    35 3879.49244    9  134 722725.000 3879.49244  99.5%   355 1954s
   531    36 3928.00000   10  172 722725.000 3885.00000  99.5%   354 1990s
H  531    34                    715921.00000 3885.00000  99.5%   354 1992s
   532    35 3924.00000   11  178 715921.000 3885.00000  99.5%   353 2006s
H  532    33                    711937.00000 3885.00000  99.5%   353 2037s
H  532    31                    679331.00000 3885.00000  99.4%   353 2037s
H  532    29                    679088.00000 3885.00000  99.4%   353 2037s
H  532    28                    678026.00000 3885.00000  99.4%   353 2037s
H  532    26                    677959.00000 3885.00000  99.4%   353 2037s
H  532    25                    676727.00000 3885.00000  99.4%   353 2037s
   533    25 3908.00000    9  141 676727.000 3885.00000  99.4%   353 2070s
H  533    24                    648409.00000 3885.00000  99.4%   353 2078s
H  533    22                    639042.00000 3885.00000  99.4%   353 2078s
H  533    21                    624687.00000 3885.00000  99.4%   353 2078s
   534    22 3965.00000    8  197 624687.000 3885.00000  99.4%   352 2102s

Cutting planes:
  Learned: 2
  Gomory: 80
  Lift-and-project: 48
  Cover: 1
  Implied bound: 3
  Projected implied bound: 14
  MIR: 1131
  Mixing: 8
  StrongCG: 279
  Flow cover: 2003
  GUB cover: 1
  Zero half: 28
  RLT: 10
  Relax-and-lift: 11

Explored 534 nodes (262521 simplex iterations) in 2160.25 seconds (2385.95 work units)
Thread count was 16 (of 16 available processors)

Solution count 10: 624687 639042 648409 ... 715921

Time limit reached
Best objective 6.246870000000e+05, best bound 3.884999999999e+03, gap 99.3781%

User-callback calls 683840, time in user-callback 4.24 sec
Set parameter TimeLimit to value 1080
Gurobi Optimizer version 12.0.3 build v12.0.3rc0 (linux64 - "Ubuntu 22.04.5 LTS")

CPU model: Intel(R) Xeon(R) W-2145 CPU @ 3.70GHz, instruction set [SSE2|AVX|AVX2|AVX512]
Thread count: 8 physical cores, 16 logical processors, using up to 16 threads

Non-default parameters:
TimeLimit  1080
Heuristics  0.1
MIPFocus  3
Presolve  2
ImproveStartGap  0.5

Optimize a model with 355329 rows, 90861 columns and 1754360 nonzeros
Model fingerprint: 0x42a46a57
Model has 15 quadratic constraints
Variable types: 15 continuous, 90846 integer (90244 binary)
Coefficient statistics:
  Matrix range     [1e+00, 2e+04]
  QMatrix range    [1e+00, 1e+00]
  QLMatrix range   [1e+00, 1e+00]
  Objective range  [5e-01, 5e-01]
  Bounds range     [1e+00, 1e+00]
  RHS range        [1e+00, 7e+05]

MIP start from previous solve produced solution with objective 591 (0.22s)
Loaded MIP start from previous solve with objective 591

Presolve removed 159985 rows and 41014 columns (presolve time = 5s)...
Presolve removed 160049 rows and 41038 columns (presolve time = 10s)...
Presolve removed 160050 rows and 41039 columns (presolve time = 15s)...
Presolve removed 160052 rows and 41039 columns (presolve time = 20s)...
Presolve removed 160052 rows and 41039 columns
Presolve time: 20.16s
Presolved: 195277 rows, 49822 columns, 1363811 nonzeros
Presolved model has 15 quadratic constraint(s)
Found heuristic solution: objective 160.0000000
Variable types: 15 continuous, 49807 integer (49558 binary)

Deterministic concurrent LP optimizer: primal simplex, dual simplex, and barrier
Showing barrier log only...

Root relaxation presolve removed 2891 rows and 1318 columns
Root relaxation presolved: 192386 rows, 48504 columns, 1350080 nonzeros

Root barrier log...

Ordering time: 0.12s

Barrier statistics:
 Dense cols : 1014
 AA' NZ     : 1.546e+06
 Factor NZ  : 2.809e+06 (roughly 120 MB of memory)
 Factor Ops : 3.451e+08 (less than 1 second per iteration)
 Threads    : 6

                  Objective                Residual
Iter       Primal          Dual         Primal    Dual     Compl     Time
   0   1.48369671e+03 -3.07694013e+05  3.84e+03 7.81e-03  5.44e+01    24s
   1   9.29767805e+02 -9.16035442e+05  2.24e+03 3.33e+01  3.09e+01    24s

Barrier performed 1 iterations in 24.01 seconds (56.03 work units)
Barrier solve interrupted - model solved by another algorithm

Concurrent spin time: 0.29s

Solved with primal simplex

Root relaxation: objective 3.100000e+01, 4556 iterations, 3.18 seconds (2.53 work units)
Total elapsed time = 27.09s (DegenMoves)
Total elapsed time = 33.41s (DegenMoves)

    Nodes    |    Current Node    |     Objective Bounds      |     Work
 Expl Unexpl |  Obj  Depth IntInf | Incumbent    BestBd   Gap | It/Node Time

     0     0   31.00000    0   75  160.00000   31.00000  80.6%     -   33s
     0     0   31.00000    0   74  160.00000   31.00000  80.6%     -   57s
     0     0   31.00000    0   90  160.00000   31.00000  80.6%     -   63s
     0     0   31.00000    0   84  160.00000   31.00000  80.6%     -   75s
     0     0   31.00000    0  125  160.00000   31.00000  80.6%     -   76s
     0     0   31.00000    0   63  160.00000   31.00000  80.6%     -   92s
     0     0   31.00000    0  125  160.00000   31.00000  80.6%     -   96s
     0     0   31.00000    0  122  160.00000   31.00000  80.6%     -  106s
     0     0   31.00000    0  177  160.00000   31.00000  80.6%     -  107s
     0     0   31.00000    0   50  160.00000   31.00000  80.6%     -  124s
     0     0   31.00000    0  111  160.00000   31.00000  80.6%     -  130s
     0     0   31.00000    0  135  160.00000   31.00000  80.6%     -  139s
     0     0   31.00000    0  178  160.00000   31.00000  80.6%     -  141s
     0     0   31.00000    0  121  160.00000   31.00000  80.6%     -  155s
     0     0   31.00000    0  179  160.00000   31.00000  80.6%     -  158s
     0     0   31.00000    0   74  160.00000   31.00000  80.6%     -  179s
     0     0   31.00000    0  126  160.00000   31.00000  80.6%     -  191s
     0     0   31.00000    0   94  160.00000   31.00000  80.6%     -  198s
     0     0   31.00000    0   87  160.00000   31.00000  80.6%     -  215s
     0     0   31.00000    0   62  160.00000   31.00000  80.6%     -  222s
     0     0   31.00000    0  100  160.00000   31.00000  80.6%     -  239s
     0     0   31.00000    0   75  160.00000   31.00000  80.6%     -  252s
     0     0   31.00000    0   77  160.00000   31.00000  80.6%     -  260s
     0     0   31.00000    0   97  160.00000   31.00000  80.6%     -  277s
     0     0   31.00000    0  116  160.00000   31.00000  80.6%     -  287s
     0     0   31.00000    0   36  160.00000   31.00000  80.6%     -  308s
     0     0   31.00000    0   74  160.00000   31.00000  80.6%     -  322s
     0     0   31.00000    0   83  160.00000   31.00000  80.6%     -  332s
     0     0   31.00000    0   74  160.00000   31.00000  80.6%     -  340s
     0     0   31.00000    0   61  160.00000   31.00000  80.6%     -  352s
     0     0   31.00000    0   65  160.00000   31.00000  80.6%     -  363s
     0     0   31.00000    0   78  160.00000   31.00000  80.6%     -  371s
     0     0   31.00000    0   94  160.00000   31.00000  80.6%     -  378s
     0     0   31.00000    0   95  160.00000   31.00000  80.6%     -  382s
     0     0   31.00000    0   88  160.00000   31.00000  80.6%     -  389s
H    0     0                     159.0000000   31.00000  80.5%     -  392s
H    0     0                     157.0000000   31.00000  80.3%     -  394s
     0     2   31.00000    0   84  157.00000   31.00000  80.3%     -  463s
     1     4   31.00000    1   84  157.00000   31.00000  80.3%   147  468s
     3     8   31.00000    2  162  157.00000   31.00000  80.3%   144  472s
    15    24   31.00000    4  140  157.00000   31.00000  80.3%   263  479s
    23   120   31.00000    5  256  157.00000   31.00000  80.3%   331  492s
   119   390   31.00000   11  125  157.00000   31.00000  80.3%   163  509s
H  319   390                     156.0000000   31.00000  80.1%  82.4  509s
H  396  1032                     155.0000000   31.00000  80.0%  71.3  536s
H  567  1032                      31.0000000   31.00000  0.00%  60.0  536s

Cutting planes:
  Learned: 12
  Gomory: 210
  Lift-and-project: 343
  Implied bound: 32
  MIR: 3459
  Mixing: 24
  StrongCG: 2809
  Flow cover: 7677
  Zero half: 245
  RLT: 595
  Relax-and-lift: 219

Explored 1038 nodes (93003 simplex iterations) in 536.42 seconds (647.57 work units)
Thread count was 16 (of 16 available processors)

Solution count 7: 31 155 156 ... 591

Optimal solution found (tolerance 1.00e-04)
Best objective 3.100000000000e+01, best bound 3.100000000000e+01, gap 0.0000%

User-callback calls 157401, time in user-callback 0.88 sec
Set parameter TimeLimit to value 360
Gurobi Optimizer version 12.0.3 build v12.0.3rc0 (linux64 - "Ubuntu 22.04.5 LTS")

CPU model: Intel(R) Xeon(R) W-2145 CPU @ 3.70GHz, instruction set [SSE2|AVX|AVX2|AVX512]
Thread count: 8 physical cores, 16 logical processors, using up to 16 threads

Non-default parameters:
TimeLimit  360
Heuristics  0.1
MIPFocus  3
Presolve  2
ImproveStartGap  0.5

Optimize a model with 355331 rows, 90861 columns and 1755557 nonzeros
Model fingerprint: 0x61da42f9
Model has 15 quadratic constraints
Variable types: 15 continuous, 90846 integer (90244 binary)
Coefficient statistics:
  Matrix range     [5e-01, 2e+04]
  QMatrix range    [1e+00, 1e+00]
  QLMatrix range   [1e+00, 1e+00]
  Objective range  [1e+00, 1e+00]
  Bounds range     [1e+00, 1e+00]
  RHS range        [1e+00, 7e+05]

MIP start from previous solve produced solution with objective 2602 (0.25s)
Loaded MIP start from previous solve with objective 2602

Presolve removed 159449 rows and 41013 columns (presolve time = 5s)...
Presolve removed 159822 rows and 41043 columns (presolve time = 10s)...
Presolve removed 159823 rows and 41043 columns (presolve time = 15s)...
Presolve removed 159823 rows and 41043 columns (presolve time = 20s)...
Presolve removed 159823 rows and 41043 columns
Presolve time: 20.47s
Presolved: 195508 rows, 49818 columns, 1362377 nonzeros
Presolved model has 15 quadratic constraint(s)
Variable types: 15 continuous, 49803 integer (49553 binary)

Resetting heuristic parameters to focus on improving solution
(using Heuristics=0.5 and RINS=10)...


Deterministic concurrent LP optimizer: primal simplex, dual simplex, and barrier
Showing barrier log only...

Root relaxation presolve removed 175912 rows and 45174 columns
Root relaxation presolved: 19596 rows, 4644 columns, 150407 nonzeros

Root barrier log...

Ordering time: 0.06s

Barrier statistics:
 Dense cols : 341
 AA' NZ     : 6.262e+05
 Factor NZ  : 1.409e+06 (roughly 20 MB of memory)
 Factor Ops : 2.050e+08 (less than 1 second per iteration)
 Threads    : 6

                  Objective                Residual
Iter       Primal          Dual         Primal    Dual     Compl     Time
   0   2.11551059e+04 -2.83257022e+05  1.34e+05 3.42e-02  2.50e+03    22s
   1   2.19019203e+04 -1.19858914e+06  7.28e+04 9.92e+00  1.30e+03    22s
   2   5.17632389e+03 -1.67568346e+06  3.77e+04 4.96e+00  6.73e+02    22s
   3   2.40906690e+03 -1.36086430e+06  2.52e+03 5.84e+00  8.24e+01    22s
   4   2.30164803e+03 -6.17234810e+05  1.00e+03 3.87e-01  2.89e+01    22s
   5   2.30936613e+03 -1.84932360e+05  5.01e+02 1.38e-01  7.97e+00    22s
   6   2.31301458e+03 -3.23240986e+04  1.08e+02 3.09e-02  1.32e+00    22s
   7   2.30317629e+03 -3.70346042e+03  2.49e+01 1.52e-02  2.18e-01    22s
   8   2.30100139e+03  2.14985201e+03  1.50e+01 8.84e-03  5.89e-03    22s
   9   2.30104778e+03  2.29581481e+03  3.74e-10 3.97e-03  2.08e-04    22s
  10   2.30100217e+03  2.30099403e+03  1.33e-09 7.48e-07  2.82e-07    23s
  11   2.30100217e+03  2.30099411e+03  1.33e-09 1.01e-06  2.82e-07    23s
  12   2.30100217e+03  2.30099417e+03  1.33e-09 1.58e-06  2.82e-07    23s
  13   2.30100217e+03  2.30099426e+03  1.33e-09 3.00e-06  2.81e-07    23s
  14   2.30100217e+03  2.30099415e+03  1.34e-09 3.00e-06  2.81e-07    23s
  15   2.30100217e+03  2.30099370e+03  1.33e-09 3.02e-06  2.81e-07    23s
  16   2.30100217e+03  2.30099329e+03  1.33e-09 7.14e-06  2.81e-07    23s
  17   2.30100217e+03  2.30099288e+03  1.33e-09 1.27e-05  2.80e-07    23s
  18   2.30100217e+03  2.30099251e+03  1.33e-09 2.95e-05  2.80e-07    23s
  19   2.30100217e+03  2.30099166e+03  1.33e-09 3.42e-05  2.79e-07    23s
  20   2.30100217e+03  2.30098948e+03  1.33e-09 3.29e-05  2.79e-07    23s
  21   2.30100217e+03  2.30098655e+03  1.33e-09 4.75e-05  2.79e-07    23s

Barrier performed 21 iterations in 22.76 seconds (57.19 work units)
Sub-optimal termination - objective 2.30100217e+03


Root crossover log...

      20 DPushes remaining with DInf 0.0000000e+00                23s
       0 DPushes remaining with DInf 0.0000000e+00                23s

     781 PPushes remaining with PInf 0.0000000e+00                23s
       0 PPushes remaining with PInf 0.0000000e+00                23s

  Push phase complete: Pinf 0.0000000e+00, Dinf 0.0000000e+00     23s


Root simplex log...

Iteration    Objective       Primal Inf.    Dual Inf.      Time
     801    2.3010000e+03   0.000000e+00   0.000000e+00     23s
     801    2.3010000e+03   0.000000e+00   0.000000e+00     23s
Concurrent spin time: 0.01s

Solved with barrier

Root relaxation: objective 2.301000e+03, 801 iterations, 1.76 seconds (3.48 work units)
Total elapsed time = 32.55s (DegenMoves)
Total elapsed time = 36.70s (DegenMoves)
Total elapsed time = 54.59s (DegenMoves)
Total elapsed time = 55.44s (DegenMoves)

    Nodes    |    Current Node    |     Objective Bounds      |     Work
 Expl Unexpl |  Obj  Depth IntInf | Incumbent    BestBd   Gap | It/Node Time

     0     0 2301.00000    0  252 2602.00000 2301.00000  11.6%     -   57s
H    0     0                    2601.0000000 2301.00000  11.5%     -   58s
     0     0 2301.00000    0  201 2601.00000 2301.00000  11.5%     -   84s
     0     2 2301.00000    0  188 2601.00000 2301.00000  11.5%     -   96s
     1     4 2301.00000    1  189 2601.00000 2301.00000  11.5%  2186  105s
     7    16 2301.00000    3  291 2601.00000 2301.00000  11.5%   520  111s
H   23    51                    2600.0000000 2301.00000  11.5%   798  120s
    58    79 2301.00000    8  288 2600.00000 2301.00000  11.5%   358  126s
H   60    79                    2599.0000000 2301.00000  11.5%   354  126s
    86   108 2301.00000    9  250 2599.00000 2301.00000  11.5%   291  133s
H   87   108                    2598.0000000 2301.00000  11.4%   288  133s
   115   198 2301.00000   11  252 2598.00000 2301.00000  11.4%   253  143s
H  120   198                    2597.0000000 2301.00000  11.4%   244  143s
   206   327 2301.00000   20  227 2597.00000 2301.00000  11.4%   170  163s
H  208   327                    2596.0000000 2301.00000  11.4%   168  163s
   336   565 2301.00000   31  238 2596.00000 2301.00000  11.4%   125  186s
H  472   565                    2595.0000000 2301.00000  11.3%  96.9  186s
H  577   777                    2594.0000000 2301.00000  11.3%  83.3  219s
   616   777 2301.40496    4  298 2594.00000 2301.00000  11.3%  80.5  220s
   793  1192 2301.00000   63  219 2594.00000 2301.00000  11.3%  70.0  246s
H  835  1192                    2593.0000000 2301.00000  11.3%  68.4  246s
H 1216  1508                    2592.0000000 2301.00000  11.2%  58.8  271s
H 1545  1797                    2591.0000000 2301.00000  11.2%  55.3  329s
H 1850  1797                    2573.0000000 2301.00000  10.6%  58.0  331s
H 1850  1797                    2572.0000000 2301.00000  10.5%  58.0  332s
H 1850  1797                    2571.0000000 2301.00000  10.5%  58.0  333s
H 1850  1797                    2570.0000000 2301.00000  10.5%  58.0  333s
H 1850  1797                    2569.0000000 2301.00000  10.4%  58.0  333s
H 1850  1797                    2568.0000000 2301.00000  10.4%  58.0  333s
H 1850  1797                    2567.0000000 2301.00000  10.4%  58.0  333s
H 1850  1797                    2565.0000000 2301.00000  10.3%  58.0  333s

Cutting planes:
  Learned: 43
  Gomory: 10
  Lift-and-project: 6
  Cover: 92
  Implied bound: 219
  Clique: 3
  MIR: 5392
  Mixing: 53
  StrongCG: 1873
  Flow cover: 12186
  GUB cover: 1
  Zero half: 60
  RLT: 292
  Relax-and-lift: 360

Explored 1850 nodes (118820 simplex iterations) in 360.03 seconds (369.75 work units)
Thread count was 16 (of 16 available processors)

Solution count 10: 2565 2567 2568 ... 2592

Time limit reached
Best objective 2.565000000000e+03, best bound 2.301000000000e+03, gap 10.2924%

User-callback calls 59575, time in user-callback 0.35 sec
